c CNF file corresponding to a (partial) station packing problem.
p cnf 7303 229
1 2 3 4 5 6 7 8 9 10 11 12 13 14 0
-1 -2 0
-1 -3 0
-1 -4 0
-1 -5 0
-1 -6 0
-1 -7 0
-1 -8 0
-1 -9 0
-1 -10 0
-1 -11 0
-1 -12 0
-1 -13 0
-1 -14 0
-2 -3 0
-2 -4 0
-2 -5 0
-2 -6 0
-2 -7 0
-2 -8 0
-2 -9 0
-2 -10 0
-2 -11 0
-2 -12 0
-2 -13 0
-2 -14 0
-3 -4 0
-3 -5 0
-3 -6 0
-3 -7 0
-3 -8 0
-3 -9 0
-3 -10 0
-3 -11 0
-3 -12 0
-3 -13 0
-3 -14 0
-4 -5 0
-4 -6 0
-4 -7 0
-4 -8 0
-4 -9 0
-4 -10 0
-4 -11 0
-4 -12 0
-4 -13 0
-4 -14 0
-5 -6 0
-5 -7 0
-5 -8 0
-5 -9 0
-5 -10 0
-5 -11 0
-5 -12 0
-5 -13 0
-5 -14 0
-6 -7 0
-6 -8 0
-6 -9 0
-6 -10 0
-6 -11 0
-6 -12 0
-6 -13 0
-6 -14 0
-7 -8 0
-7 -9 0
-7 -10 0
-7 -11 0
-7 -12 0
-7 -13 0
-7 -14 0
-8 -9 0
-8 -10 0
-8 -11 0
-8 -12 0
-8 -13 0
-8 -14 0
-9 -10 0
-9 -11 0
-9 -12 0
-9 -13 0
-9 -14 0
-10 -11 0
-10 -12 0
-10 -13 0
-10 -14 0
-11 -12 0
-11 -13 0
-11 -14 0
-12 -13 0
-12 -14 0
-13 -14 0
7287 7288 7289 7290 7291 7292 7293 7294 7295 7296 7297 7298 7299 7300 7301 7302 7303 0
-7287 -7288 0
-7287 -7289 0
-7287 -7290 0
-7287 -7291 0
-7287 -7292 0
-7287 -7293 0
-7287 -7294 0
-7287 -7295 0
-7287 -7296 0
-7287 -7297 0
-7287 -7298 0
-7287 -7299 0
-7287 -7300 0
-7287 -7301 0
-7287 -7302 0
-7287 -7303 0
-7288 -7289 0
-7288 -7290 0
-7288 -7291 0
-7288 -7292 0
-7288 -7293 0
-7288 -7294 0
-7288 -7295 0
-7288 -7296 0
-7288 -7297 0
-7288 -7298 0
-7288 -7299 0
-7288 -7300 0
-7288 -7301 0
-7288 -7302 0
-7288 -7303 0
-7289 -7290 0
-7289 -7291 0
-7289 -7292 0
-7289 -7293 0
-7289 -7294 0
-7289 -7295 0
-7289 -7296 0
-7289 -7297 0
-7289 -7298 0
-7289 -7299 0
-7289 -7300 0
-7289 -7301 0
-7289 -7302 0
-7289 -7303 0
-7290 -7291 0
-7290 -7292 0
-7290 -7293 0
-7290 -7294 0
-7290 -7295 0
-7290 -7296 0
-7290 -7297 0
-7290 -7298 0
-7290 -7299 0
-7290 -7300 0
-7290 -7301 0
-7290 -7302 0
-7290 -7303 0
-7291 -7292 0
-7291 -7293 0
-7291 -7294 0
-7291 -7295 0
-7291 -7296 0
-7291 -7297 0
-7291 -7298 0
-7291 -7299 0
-7291 -7300 0
-7291 -7301 0
-7291 -7302 0
-7291 -7303 0
-7292 -7293 0
-7292 -7294 0
-7292 -7295 0
-7292 -7296 0
-7292 -7297 0
-7292 -7298 0
-7292 -7299 0
-7292 -7300 0
-7292 -7301 0
-7292 -7302 0
-7292 -7303 0
-7293 -7294 0
-7293 -7295 0
-7293 -7296 0
-7293 -7297 0
-7293 -7298 0
-7293 -7299 0
-7293 -7300 0
-7293 -7301 0
-7293 -7302 0
-7293 -7303 0
-7294 -7295 0
-7294 -7296 0
-7294 -7297 0
-7294 -7298 0
-7294 -7299 0
-7294 -7300 0
-7294 -7301 0
-7294 -7302 0
-7294 -7303 0
-7295 -7296 0
-7295 -7297 0
-7295 -7298 0
-7295 -7299 0
-7295 -7300 0
-7295 -7301 0
-7295 -7302 0
-7295 -7303 0
-7296 -7297 0
-7296 -7298 0
-7296 -7299 0
-7296 -7300 0
-7296 -7301 0
-7296 -7302 0
-7296 -7303 0
-7297 -7298 0
-7297 -7299 0
-7297 -7300 0
-7297 -7301 0
-7297 -7302 0
-7297 -7303 0
-7298 -7299 0
-7298 -7300 0
-7298 -7301 0
-7298 -7302 0
-7298 -7303 0
-7299 -7300 0
-7299 -7301 0
-7299 -7302 0
-7299 -7303 0
-7300 -7301 0
-7300 -7302 0
-7300 -7303 0
-7301 -7302 0
-7301 -7303 0
-7302 -7303 0
